c ind 127 126 125 124 123 122 121 120 119 118 117 116 115 114 113 112 111 110 109 108 107 106 105 104 103 102 101 100 99 98 97 96  0
c ind 409 408 407 406 405 404 403 402 401 400 399 398 397 396 395 394 393 392 391 390 389 388 387 386 385 384 383 382 381 380 379 378  0
c ind 33 32 31 30 29 28 27 26 25 24 23 22 21 20 19 18 17 16 15 14 13 12 11 10 9 8 7 6 5 4 3 2  0
c ind 221 220 219 218 217 216 215 214 213 212 211 210 209 208 207 206 205 204 203 202 201 200 199 198 197 196 195 194 193 192 191 190  0
c ind 754 753 752 751 750 749 748 747 746 745 744 743 742 741 740 739 738 737 736 735 734 733 732 731 730 729 728 727 726 725 724 723  0
c ind 503 502 501 500 499 498 497 496 495 494 493 492 491 490 489 488 487 486 485 484 483 482 481 480 479 478 477 476 475 474 473 472  0
c ind 315 314 313 312 311 310 309 308 307 306 305 304 303 302 301 300 299 298 297 296 295 294 293 292 291 290 289 288 287 286 285 284  0
c ind 660 659 658 657 656 655 654 653 652 651 650 649 648 647 646 645 644 643 642 641 640 639 638 637 636 635 634 633 632 631 630 629  0
c ind 566 565 564 563 562 561 560 559 558 557 556 555 554 553 552 551 550 549 548 547 546 545 544 543 542 541 540 539 538 537 536 535  0
p cnf 785 1354
1 0
-64 0
-95 0
-158 0
-189 0
-252 0
-283 0
-346 0
-377 0
-440 0
-471 0
-472 0
-473 0
-474 0
-475 0
-476 0
-477 0
-478 0
-479 0
-480 0
-481 0
-482 0
-483 0
-484 0
-485 0
-486 0
-487 0
-488 0
-489 0
-490 0
-491 0
-492 0
-493 0
-494 0
-495 0
-496 0
-497 0
-498 0
-499 0
-500 0
-501 0
-502 0
-503 0
504 0
505 0
506 0
507 0
508 0
509 0
510 0
511 0
512 0
513 0
514 0
515 0
516 0
517 0
518 0
519 0
520 0
521 0
522 0
523 0
524 0
525 0
526 0
527 0
528 0
529 0
530 0
531 0
532 0
533 0
534 0
-535 0
-536 0
-537 0
-538 0
-539 0
-540 0
-541 0
-542 0
-543 0
-544 0
-545 0
-546 0
-547 0
-548 0
-549 0
-550 0
-551 0
-552 0
-553 0
-554 0
-555 0
-556 0
-557 0
-558 0
-559 0
-560 0
-561 0
-562 0
-563 0
-564 0
-565 0
-566 0
567 0
568 0
569 0
570 0
571 0
572 0
573 0
574 0
575 0
576 0
577 0
578 0
579 0
580 0
581 0
582 0
583 0
584 0
585 0
586 0
587 0
588 0
589 0
590 0
591 0
-592 0
-593 0
-594 0
-595 0
-596 0
-597 0
598 0
599 0
600 0
601 0
602 0
603 0
604 0
605 0
606 0
607 0
608 0
609 0
610 0
611 0
612 0
613 0
614 0
615 0
616 0
617 0
618 0
619 0
620 0
621 0
622 0
623 0
624 0
625 0
626 0
627 0
628 0
-691 0
-722 0
-785 0
-2 -34 0
-2 -65 0
2 3 34 0
2 3 65 0
-3 -34 0
-3 -65 0
-4 -35 0
-4 -66 0
4 -34 35 0
4 -65 66 0
-5 -36 0
-5 -67 0
5 -35 36 0
5 -66 67 0
-6 -37 0
-6 -68 0
6 -36 37 0
6 -67 68 0
-7 -38 0
-7 -69 0
7 -37 38 0
7 -68 69 0
-8 -39 0
-8 -70 0
8 -38 39 0
8 -69 70 0
-9 -40 0
-9 -71 0
9 -39 40 0
9 -70 71 0
-10 -41 0
-10 -72 0
10 -40 41 0
10 -71 72 0
-11 -42 0
-11 -73 0
11 -41 42 0
11 -72 73 0
-12 -43 0
-12 -74 0
12 -42 43 0
12 -73 74 0
-13 -44 0
-13 -75 0
13 -43 44 0
13 -74 75 0
-14 -45 0
-14 -76 0
14 -44 45 0
14 -75 76 0
-15 -46 0
-15 -77 0
15 -45 46 0
15 -76 77 0
-16 -47 0
-16 -78 0
16 -46 47 0
16 -77 78 0
-17 -48 0
-17 -79 0
17 -47 48 0
17 -78 79 0
-18 -49 0
-18 -80 0
18 -48 49 0
18 -79 80 0
-19 -50 0
-19 -81 0
19 -49 50 0
19 -80 81 0
-20 -51 0
-20 -82 0
20 -50 51 0
20 -81 82 0
-21 -52 0
-21 -83 0
21 -51 52 0
21 -82 83 0
-22 -53 0
-22 -84 0
22 -52 53 0
22 -83 84 0
-23 -54 0
-23 -85 0
23 -53 54 0
23 -84 85 0
-24 -55 0
-24 -86 0
24 -54 55 0
24 -85 86 0
-25 -56 0
-25 -87 0
25 -55 56 0
25 -86 87 0
-26 -57 0
-26 -88 0
26 -56 57 0
26 -87 88 0
-27 -58 0
-27 -89 0
27 -57 58 0
27 -88 89 0
-28 -59 0
-28 -89 90 0
28 -90 0
28 -58 59 0
-29 -60 0
-29 -91 0
29 -59 60 0
29 -90 91 0
-30 -61 0
-30 -91 92 0
30 -92 0
30 -60 61 0
-31 -62 0
-31 -92 93 0
31 -93 0
31 -61 62 0
-32 -63 0
-32 -94 0
32 -62 63 0
32 -93 94 0
-33 -94 0
33 -63 0
34 -35 0
35 -36 0
36 -37 0
37 -38 0
38 -39 0
39 -40 0
40 -41 0
41 -42 0
42 -43 0
43 -44 0
44 -45 0
45 -46 0
46 -47 0
47 -48 0
48 -49 0
49 -50 0
50 -51 0
51 -52 0
52 -53 0
53 -54 0
54 -55 0
55 -56 0
56 -57 0
57 -58 0
58 -59 0
59 -60 0
60 -61 0
61 -62 0
62 -63 0
65 -66 0
66 -67 0
67 -68 0
68 -69 0
69 -70 0
70 -71 0
71 -72 0
72 -73 0
73 -74 0
74 -75 0
75 -76 0
76 -77 0
77 -78 0
78 -79 0
79 -80 0
80 -81 0
81 -82 0
82 -83 0
83 -84 0
84 -85 0
85 -86 0
86 -87 0
87 -88 0
88 -89 0
89 -90 0
90 -91 0
91 -92 0
92 -93 0
93 -94 0
-96 -128 0
-96 -159 0
96 97 128 0
96 97 159 0
-97 -128 0
-97 -159 0
-98 -129 0
-98 -160 0
98 -128 129 0
98 -159 160 0
-99 -130 0
-99 -161 0
99 -129 130 0
99 -160 161 0
-100 -131 0
-100 -162 0
100 -130 131 0
100 -161 162 0
-101 -132 0
-101 -163 0
101 -131 132 0
101 -162 163 0
-102 -133 0
-102 -164 0
102 -132 133 0
102 -163 164 0
-103 -134 0
-103 -165 0
103 -133 134 0
103 -164 165 0
-104 -135 0
-104 -166 0
104 -134 135 0
104 -165 166 0
-105 -136 0
-105 -167 0
105 -135 136 0
105 -166 167 0
-106 -137 0
-106 -168 0
106 -136 137 0
106 -167 168 0
-107 -138 0
-107 -169 0
107 -137 138 0
107 -168 169 0
-108 -139 0
-108 -170 0
108 -138 139 0
108 -169 170 0
-109 -140 0
-109 -171 0
109 -139 140 0
109 -170 171 0
-110 -141 0
-110 -172 0
110 -140 141 0
110 -171 172 0
-111 -142 0
-111 -173 0
111 -141 142 0
111 -172 173 0
-112 -143 0
-112 -174 0
112 -142 143 0
112 -173 174 0
-113 -144 0
-113 -175 0
113 -143 144 0
113 -174 175 0
-114 -145 0
-114 -176 0
114 -144 145 0
114 -175 176 0
-115 -146 0
-115 -177 0
115 -145 146 0
115 -176 177 0
-116 -147 0
-116 -178 0
116 -146 147 0
116 -177 178 0
-117 -148 0
-117 -179 0
117 -147 148 0
117 -178 179 0
-118 -149 0
-118 -180 0
118 -148 149 0
118 -179 180 0
-119 -150 0
-119 -181 0
119 -149 150 0
119 -180 181 0
-120 -151 0
-120 -182 0
120 -150 151 0
120 -181 182 0
-121 -152 0
-121 -183 0
121 -151 152 0
121 -182 183 0
-122 -153 0
-122 -183 184 0
122 -184 0
122 -152 153 0
-123 -154 0
-123 -185 0
123 -153 154 0
123 -184 185 0
-124 -155 0
-124 -185 186 0
124 -186 0
124 -154 155 0
-125 -156 0
-125 -186 187 0
125 -187 0
125 -155 156 0
-126 -157 0
-126 -188 0
126 -156 157 0
126 -187 188 0
-127 -188 0
127 -157 0
128 -129 0
129 -130 0
130 -131 0
131 -132 0
132 -133 0
133 -134 0
134 -135 0
135 -136 0
136 -137 0
137 -138 0
138 -139 0
139 -140 0
140 -141 0
141 -142 0
142 -143 0
143 -144 0
144 -145 0
145 -146 0
146 -147 0
147 -148 0
148 -149 0
149 -150 0
150 -151 0
151 -152 0
152 -153 0
153 -154 0
154 -155 0
155 -156 0
156 -157 0
159 -160 0
160 -161 0
161 -162 0
162 -163 0
163 -164 0
164 -165 0
165 -166 0
166 -167 0
167 -168 0
168 -169 0
169 -170 0
170 -171 0
171 -172 0
172 -173 0
173 -174 0
174 -175 0
175 -176 0
176 -177 0
177 -178 0
178 -179 0
179 -180 0
180 -181 0
181 -182 0
182 -183 0
183 -184 0
184 -185 0
185 -186 0
186 -187 0
187 -188 0
-190 -222 0
-190 -253 0
190 191 222 0
190 191 253 0
-191 -222 0
-191 -253 0
-192 -223 0
-192 -254 0
192 -222 223 0
192 -253 254 0
-193 -224 0
-193 -255 0
193 -223 224 0
193 -254 255 0
-194 -225 0
-194 -256 0
194 -224 225 0
194 -255 256 0
-195 -226 0
-195 -257 0
195 -225 226 0
195 -256 257 0
-196 -227 0
-196 -258 0
196 -226 227 0
196 -257 258 0
-197 -228 0
-197 -259 0
197 -227 228 0
197 -258 259 0
-198 -229 0
-198 -260 0
198 -228 229 0
198 -259 260 0
-199 -230 0
-199 -261 0
199 -229 230 0
199 -260 261 0
-200 -231 0
-200 -262 0
200 -230 231 0
200 -261 262 0
-201 -232 0
-201 -263 0
201 -231 232 0
201 -262 263 0
-202 -233 0
-202 -264 0
202 -232 233 0
202 -263 264 0
-203 -234 0
-203 -265 0
203 -233 234 0
203 -264 265 0
-204 -235 0
-204 -266 0
204 -234 235 0
204 -265 266 0
-205 -236 0
-205 -267 0
205 -235 236 0
205 -266 267 0
-206 -237 0
-206 -268 0
206 -236 237 0
206 -267 268 0
-207 -238 0
-207 -269 0
207 -237 238 0
207 -268 269 0
-208 -239 0
-208 -270 0
208 -238 239 0
208 -269 270 0
-209 -240 0
-209 -271 0
209 -239 240 0
209 -270 271 0
-210 -241 0
-210 -272 0
210 -240 241 0
210 -271 272 0
-211 -242 0
-211 -273 0
211 -241 242 0
211 -272 273 0
-212 -243 0
-212 -274 0
212 -242 243 0
212 -273 274 0
-213 -244 0
-213 -275 0
213 -243 244 0
213 -274 275 0
-214 -245 0
-214 -276 0
214 -244 245 0
214 -275 276 0
-215 -246 0
-215 -277 0
215 -245 246 0
215 -276 277 0
-216 -247 0
-216 -277 278 0
216 -278 0
216 -246 247 0
-217 -248 0
-217 -279 0
217 -247 248 0
217 -278 279 0
-218 -249 0
-218 -279 280 0
218 -280 0
218 -248 249 0
-219 -250 0
-219 -280 281 0
219 -281 0
219 -249 250 0
-220 -251 0
-220 -282 0
220 -250 251 0
220 -281 282 0
-221 -282 0
221 -251 0
222 -223 0
223 -224 0
224 -225 0
225 -226 0
226 -227 0
227 -228 0
228 -229 0
229 -230 0
230 -231 0
231 -232 0
232 -233 0
233 -234 0
234 -235 0
235 -236 0
236 -237 0
237 -238 0
238 -239 0
239 -240 0
240 -241 0
241 -242 0
242 -243 0
243 -244 0
244 -245 0
245 -246 0
246 -247 0
247 -248 0
248 -249 0
249 -250 0
250 -251 0
253 -254 0
254 -255 0
255 -256 0
256 -257 0
257 -258 0
258 -259 0
259 -260 0
260 -261 0
261 -262 0
262 -263 0
263 -264 0
264 -265 0
265 -266 0
266 -267 0
267 -268 0
268 -269 0
269 -270 0
270 -271 0
271 -272 0
272 -273 0
273 -274 0
274 -275 0
275 -276 0
276 -277 0
277 -278 0
278 -279 0
279 -280 0
280 -281 0
281 -282 0
-284 -316 0
-284 -347 0
284 285 316 0
284 285 347 0
-285 -316 0
-285 -347 0
-286 -317 0
-286 -348 0
286 -316 317 0
286 -347 348 0
-287 -318 0
-287 -349 0
287 -317 318 0
287 -348 349 0
-288 -319 0
-288 -350 0
288 -318 319 0
288 -349 350 0
-289 -320 0
-289 -351 0
289 -319 320 0
289 -350 351 0
-290 -321 0
-290 -352 0
290 -320 321 0
290 -351 352 0
-291 -322 0
-291 -353 0
291 -321 322 0
291 -352 353 0
-292 -323 0
-292 -354 0
292 -322 323 0
292 -353 354 0
-293 -324 0
-293 -355 0
293 -323 324 0
293 -354 355 0
-294 -325 0
-294 -356 0
294 -324 325 0
294 -355 356 0
-295 -326 0
-295 -357 0
295 -325 326 0
295 -356 357 0
-296 -327 0
-296 -358 0
296 -326 327 0
296 -357 358 0
-297 -328 0
-297 -359 0
297 -327 328 0
297 -358 359 0
-298 -329 0
-298 -360 0
298 -328 329 0
298 -359 360 0
-299 -330 0
-299 -361 0
299 -329 330 0
299 -360 361 0
-300 -331 0
-300 -362 0
300 -330 331 0
300 -361 362 0
-301 -332 0
-301 -363 0
301 -331 332 0
301 -362 363 0
-302 -333 0
-302 -364 0
302 -332 333 0
302 -363 364 0
-303 -334 0
-303 -365 0
303 -333 334 0
303 -364 365 0
-304 -335 0
-304 -366 0
304 -334 335 0
304 -365 366 0
-305 -336 0
-305 -367 0
305 -335 336 0
305 -366 367 0
-306 -337 0
-306 -368 0
306 -336 337 0
306 -367 368 0
-307 -338 0
-307 -369 0
307 -337 338 0
307 -368 369 0
-308 -339 0
-308 -370 0
308 -338 339 0
308 -369 370 0
-309 -340 0
-309 -371 0
309 -339 340 0
309 -370 371 0
-310 -341 0
-310 -371 372 0
310 -372 0
310 -340 341 0
-311 -342 0
-311 -373 0
311 -341 342 0
311 -372 373 0
-312 -343 0
-312 -373 374 0
312 -374 0
312 -342 343 0
-313 -344 0
-313 -374 375 0
313 -375 0
313 -343 344 0
-314 -345 0
-314 -376 0
314 -344 345 0
314 -375 376 0
-315 -376 0
315 -345 0
316 -317 0
317 -318 0
318 -319 0
319 -320 0
320 -321 0
321 -322 0
322 -323 0
323 -324 0
324 -325 0
325 -326 0
326 -327 0
327 -328 0
328 -329 0
329 -330 0
330 -331 0
331 -332 0
332 -333 0
333 -334 0
334 -335 0
335 -336 0
336 -337 0
337 -338 0
338 -339 0
339 -340 0
340 -341 0
341 -342 0
342 -343 0
343 -344 0
344 -345 0
347 -348 0
348 -349 0
349 -350 0
350 -351 0
351 -352 0
352 -353 0
353 -354 0
354 -355 0
355 -356 0
356 -357 0
357 -358 0
358 -359 0
359 -360 0
360 -361 0
361 -362 0
362 -363 0
363 -364 0
364 -365 0
365 -366 0
366 -367 0
367 -368 0
368 -369 0
369 -370 0
370 -371 0
371 -372 0
372 -373 0
373 -374 0
374 -375 0
375 -376 0
-378 -410 0
-378 -441 0
378 379 410 0
378 379 441 0
-379 -410 0
-379 -441 0
-380 -411 0
-380 -442 0
380 -410 411 0
380 -441 442 0
-381 -412 0
-381 -443 0
381 -411 412 0
381 -442 443 0
-382 -413 0
-382 -444 0
382 -412 413 0
382 -443 444 0
-383 -414 0
-383 -445 0
383 -413 414 0
383 -444 445 0
-384 -415 0
-384 -446 0
384 -414 415 0
384 -445 446 0
-385 -416 0
-385 -447 0
385 -415 416 0
385 -446 447 0
-386 -417 0
-386 -448 0
386 -416 417 0
386 -447 448 0
-387 -418 0
-387 -449 0
387 -417 418 0
387 -448 449 0
-388 -419 0
-388 -450 0
388 -418 419 0
388 -449 450 0
-389 -420 0
-389 -451 0
389 -419 420 0
389 -450 451 0
-390 -421 0
-390 -452 0
390 -420 421 0
390 -451 452 0
-391 -422 0
-391 -453 0
391 -421 422 0
391 -452 453 0
-392 -423 0
-392 -454 0
392 -422 423 0
392 -453 454 0
-393 -424 0
-393 -455 0
393 -423 424 0
393 -454 455 0
-394 -425 0
-394 -456 0
394 -424 425 0
394 -455 456 0
-395 -426 0
-395 -457 0
395 -425 426 0
395 -456 457 0
-396 -427 0
-396 -458 0
396 -426 427 0
396 -457 458 0
-397 -428 0
-397 -459 0
397 -427 428 0
397 -458 459 0
-398 -429 0
-398 -460 0
398 -428 429 0
398 -459 460 0
-399 -430 0
-399 -461 0
399 -429 430 0
399 -460 461 0
-400 -431 0
-400 -462 0
400 -430 431 0
400 -461 462 0
-401 -432 0
-401 -463 0
401 -431 432 0
401 -462 463 0
-402 -433 0
-402 -464 0
402 -432 433 0
402 -463 464 0
-403 -434 0
-403 -465 0
403 -433 434 0
403 -464 465 0
-404 -435 0
-404 -465 466 0
404 -466 0
404 -434 435 0
-405 -436 0
-405 -467 0
405 -435 436 0
405 -466 467 0
-406 -437 0
-406 -467 468 0
406 -468 0
406 -436 437 0
-407 -438 0
-407 -468 469 0
407 -469 0
407 -437 438 0
-408 -439 0
-408 -470 0
408 -438 439 0
408 -469 470 0
-409 -470 0
409 -439 0
410 -411 0
411 -412 0
412 -413 0
413 -414 0
414 -415 0
415 -416 0
416 -417 0
417 -418 0
418 -419 0
419 -420 0
420 -421 0
421 -422 0
422 -423 0
423 -424 0
424 -425 0
425 -426 0
426 -427 0
427 -428 0
428 -429 0
429 -430 0
430 -431 0
431 -432 0
432 -433 0
433 -434 0
434 -435 0
435 -436 0
436 -437 0
437 -438 0
438 -439 0
441 -442 0
442 -443 0
443 -444 0
444 -445 0
445 -446 0
446 -447 0
447 -448 0
448 -449 0
449 -450 0
450 -451 0
451 -452 0
452 -453 0
453 -454 0
454 -455 0
455 -456 0
456 -457 0
457 -458 0
458 -459 0
459 -460 0
460 -461 0
461 -462 0
462 -463 0
463 -464 0
464 -465 0
465 -466 0
466 -467 0
467 -468 0
468 -469 0
469 -470 0
-629 -661 0
-629 -692 0
629 630 661 0
629 630 692 0
-630 -661 0
-630 -692 0
-631 -662 0
-631 -693 0
631 -661 662 0
631 -692 693 0
-632 -663 0
-632 -694 0
632 -662 663 0
632 -693 694 0
-633 -664 0
-633 -695 0
633 -663 664 0
633 -694 695 0
-634 -665 0
-634 -696 0
634 -664 665 0
634 -695 696 0
-635 -666 0
-635 -697 0
635 -665 666 0
635 -696 697 0
-636 -667 0
-636 -698 0
636 -666 667 0
636 -697 698 0
-637 -668 0
-637 -699 0
637 -667 668 0
637 -698 699 0
-638 -669 0
-638 -700 0
638 -668 669 0
638 -699 700 0
-639 -670 0
-639 -701 0
639 -669 670 0
639 -700 701 0
-640 -671 0
-640 -702 0
640 -670 671 0
640 -701 702 0
-641 -672 0
-641 -703 0
641 -671 672 0
641 -702 703 0
-642 -673 0
-642 -704 0
642 -672 673 0
642 -703 704 0
-643 -674 0
-643 -705 0
643 -673 674 0
643 -704 705 0
-644 -675 0
-644 -706 0
644 -674 675 0
644 -705 706 0
-645 -676 0
-645 -707 0
645 -675 676 0
645 -706 707 0
-646 -677 0
-646 -708 0
646 -676 677 0
646 -707 708 0
-647 -678 0
-647 -709 0
647 -677 678 0
647 -708 709 0
-648 -679 0
-648 -710 0
648 -678 679 0
648 -709 710 0
-649 -680 0
-649 -711 0
649 -679 680 0
649 -710 711 0
-650 -681 0
-650 -712 0
650 -680 681 0
650 -711 712 0
-651 -682 0
-651 -713 0
651 -681 682 0
651 -712 713 0
-652 -683 0
-652 -714 0
652 -682 683 0
652 -713 714 0
-653 -684 0
-653 -715 0
653 -683 684 0
653 -714 715 0
-654 -685 0
-654 -716 0
654 -684 685 0
654 -715 716 0
-655 -686 0
-655 -716 717 0
655 -717 0
655 -685 686 0
-656 -687 0
-656 -718 0
656 -686 687 0
656 -717 718 0
-657 -688 0
-657 -718 719 0
657 -719 0
657 -687 688 0
-658 -689 0
-658 -719 720 0
658 -720 0
658 -688 689 0
-659 -690 0
-659 -721 0
659 -689 690 0
659 -720 721 0
-660 -721 0
660 -690 0
661 -662 0
662 -663 0
663 -664 0
664 -665 0
665 -666 0
666 -667 0
667 -668 0
668 -669 0
669 -670 0
670 -671 0
671 -672 0
672 -673 0
673 -674 0
674 -675 0
675 -676 0
676 -677 0
677 -678 0
678 -679 0
679 -680 0
680 -681 0
681 -682 0
682 -683 0
683 -684 0
684 -685 0
685 -686 0
686 -687 0
687 -688 0
688 -689 0
689 -690 0
692 -693 0
693 -694 0
694 -695 0
695 -696 0
696 -697 0
697 -698 0
698 -699 0
699 -700 0
700 -701 0
701 -702 0
702 -703 0
703 -704 0
704 -705 0
705 -706 0
706 -707 0
707 -708 0
708 -709 0
709 -710 0
710 -711 0
711 -712 0
712 -713 0
713 -714 0
714 -715 0
715 -716 0
716 -717 0
717 -718 0
718 -719 0
719 -720 0
720 -721 0
-723 -755 0
723 724 755 0
-724 -755 0
-725 -756 0
725 -755 756 0
-726 -757 0
726 -756 757 0
-727 -758 0
727 -757 758 0
-728 -759 0
728 -758 759 0
-729 -760 0
729 -759 760 0
-730 -761 0
730 -760 761 0
-731 -762 0
731 -761 762 0
-732 -763 0
732 -762 763 0
-733 -764 0
733 -763 764 0
-734 -765 0
734 -764 765 0
-735 -766 0
735 -765 766 0
-736 -767 0
736 -766 767 0
-737 -768 0
737 -767 768 0
-738 -769 0
738 -768 769 0
-739 -770 0
739 -769 770 0
-740 -771 0
740 -770 771 0
-741 -772 0
741 -771 772 0
-742 -773 0
742 -772 773 0
-743 -774 0
743 -773 774 0
-744 -775 0
744 -774 775 0
-745 -776 0
745 -775 776 0
-746 -777 0
746 -776 777 0
-747 -778 0
747 -777 778 0
-748 -779 0
748 -778 779 0
-749 -780 0
749 -779 780 0
-750 -781 0
750 -780 781 0
-751 -782 0
751 -781 782 0
-752 -783 0
752 -782 783 0
-753 -784 0
753 -783 784 0
754 -784 0
755 -756 0
756 -757 0
757 -758 0
758 -759 0
759 -760 0
760 -761 0
761 -762 0
762 -763 0
763 -764 0
764 -765 0
765 -766 0
766 -767 0
767 -768 0
768 -769 0
769 -770 0
770 -771 0
771 -772 0
772 -773 0
773 -774 0
774 -775 0
775 -776 0
776 -777 0
777 -778 0
778 -779 0
779 -780 0
780 -781 0
781 -782 0
782 -783 0
783 -784 0
